57 69 20 14 16 13 60 30 63 38 79 82 95 5 54 41 65 0 1 19 34 96 22 21 91 40 72 84 56 87 48 75 33 67 94 9 64 59 66 45 15 31 7 78 10 97 32 3 93 88 8 17 23 37 92 70 18 42 83 61 73 89 12 80 86 28 47 55 35 52 76 99 58 36 26 27 81 11 71 62 68 85 39 43 53 98 50 4 49 2 6 29 25 77 44 46 51 24 74 90 

